Minimize
  - 31 y_0 - 40 y_1 - 32 y_2 - 8 y_3 - 29 y_4 - 33 y_5 - 23 y_6 - 22 y_8
   - 4 y_9 + 28 x_0_1 + 10 x_0_2 + 80 x_0_4 + 79 x_0_6 + 63 x_0_7
   + 74 x_0_8 + 59 x_0_9 + 37 x_1_2 + 65 x_1_3 + 76 x_1_4 + 53 x_2_3
   + 85 x_2_6 + 54 x_3_5 + 40 x_3_6 + 80 x_4_5 + 13 x_4_6 + 57 x_4_7
   + 80 x_5_6 + 75 x_5_8 + 46 x_6_7 + 39 x_6_9 + 43 x_7_8 + 8 x_7_9
   + 8 x_7_9 + 8 x_7_9 + 8 x_7_9 + 8 x_7_9 + 8 x_7_9 + 8 x_7_9 + 8 x_7_9
   + 8 x_7_9 + 8 x_7_9 + 8 x_7_9 + 8 x_7_9 + 8 x_7_9 + 8 x_7_9 + 8 x_7_9
   + 8 x_7_9 + 8 x_7_9 + 8 x_7_9 + 8 x_7_9 + 8 x_7_9 + 8 x_7_9 + 8 x_7_9
   + 8 x_7_9 + 8 x_7_9 + 8 x_7_9 + 8 x_7_9 + 8 x_7_9 + 8 x_7_9 + 8 x_7_9
   + 8 x_7_9 + 8 x_7_9 + 8 x_7_9 + 8 x_7_9 + 8 x_7_9 + 8 x_7_9 + 8 x_7_9
   + 8 x_7_9 + 8 x_7_9 + 8 x_7_9 + 8 x_7_9 + 8 x_7_9 + 8 x_7_9 + 8 x_7_9
   + 8 x_7_9 + 8 x_7_9 + 8 x_7_9 + 8 x_7_9 + 8 x_7_9 + 8 x_7_9 + 8 x_7_9
   + 8 x_7_9 + 8 x_7_9 + 8 x_7_9 + 8 x_7_9 + 8 x_7_9 + 8 x_7_9 + 8 x_7_9
   + 8 x_7_9 + 8 x_7_9 + 8 x_7_9 + 8 x_7_9 + 8 x_7_9 + 8 x_7_9 + 8 x_7_9
   + 8 x_7_9 + 8 x_7_9 + 8 x_7_9 + 8 x_7_9 + 8 x_7_9 + 8 x_7_9 + 8 x_7_9
   + 8 x_7_9 + 8 x_7_9 + 8 x_7_9 + 8 x_7_9 + 8 x_7_9 + 8 x_7_9 + 8 x_7_9
   + 8 x_7_9 + 8 x_7_9 + 8 x_7_9 + 8 x_7_9 + 8 x_7_9 + 8 x_7_9 + 8 x_7_9
   + 8 x_7_9 + 8 x_7_9 + 8 x_7_9 + 8 x_7_9 + 8 x_7_9 + 8 x_7_9 + 8 x_7_9
   + 8 x_7_9 + 8 x_7_9 + 8 x_7_9 + 8 x_7_9 + 8 x_7_9 + 8 x_7_9 + 8 x_7_9
   + 8 x_7_9 + 8 x_7_9 + 8 x_7_9 + 8 x_7_9 + 8 x_7_9 + 8 x_7_9 + 8 x_7_9
   + 8 x_7_9 + 8 x_7_9 + 8 x_7_9 + 8 x_7_9 + 8 x_7_9 + 8 x_7_9 + 8 x_7_9
   + 8 x_7_9 + 8 x_7_9 + 8 x_7_9 + 8 x_7_9 + 8 x_7_9 + 8 x_7_9 + 8 x_7_9
   + 8 x_7_9 + 8 x_7_9 + 8 x_7_9 + 8 x_7_9 + 8 x_7_9 + 8 x_7_9 + 8 x_7_9
   + 8 x_7_9 + 8 x_7_9 + 8 x_7_9 + 8 x_7_9 + 8 x_7_9 + 8 x_7_9 + 8 x_7_9
   + 8 x_7_9 + 8 x_7_9 + 8 x_7_9 + 8 x_7_9 + 8 x_7_9 + 8 x_7_9 + 8 x_7_9
   + 8 x_7_9 + 8 x_7_9 + 8 x_7_9 + 8 x_7_9 + 8 x_7_9 + 8 x_7_9 + 8 x_7_9
   + 8 x_7_9 + 8 x_7_9 + 8 x_7_9 + 8 x_7_9 + 8 x_7_9 + 8 x_7_9 + 8 x_7_9
   + 8 x_7_9 + 8 x_7_9 + 8 x_7_9 + 8 x_7_9 + 8 x_7_9 + 8 x_7_9 + 8 x_7_9
   + 8 x_7_9 + 8 x_7_9 + 8 x_7_9 + 8 x_7_9 + 8 x_7_9 + 8 x_7_9 + 8 x_7_9
   + 8 x_7_9 + 8 x_7_9 + 8 x_7_9 + 8 x_7_9 + 8 x_7_9 + 8 x_7_9 + 8 x_7_9
   + 8 x_7_9 + 8 x_7_9 + 8 x_7_9 + 8 x_7_9 + 8 x_7_9 + 8 x_7_9 + 8 x_7_9
   + 8 x_7_9 + 8 x_7_9 + 8 x_7_9 + 8 x_7_9 + 8 x_7_9 + 8 x_7_9 + 8 x_7_9
   + 8 x_7_9 + 8 x_7_9 + 8 x_7_9 + 8 x_7_9 + 8 x_7_9 + 8 x_7_9 + 8 x_7_9
   + 8 x_7_9 + 8 x_7_9 + 8 x_7_9 + 8 x_7_9 + 8 x_7_9 + 8 x_7_9 + 8 x_7_9
   + 8 x_7_9 + 8 x_7_9 + 8 x_7_9 + 8 x_7_9 + 8 x_7_9 + 8 x_7_9 + 8 x_7_9
   + 8 x_7_9 + 8 x_7_9 + 8 x_7_9 + 8 x_7_9 + 8 x_7_9 + 222 Constant
Subject To
 c_0: y_0 = 1
 c_1_0: y_0 + y_2 + y_5 >= 1
 c_1_1: y_1 >= 1
 c_1_2: y_0 + y_2 >= 1
 c_1_3: y_3 + y_9 >= 1
 c_1_4: y_4 >= 1
 c_1_5: y_0 + y_5 >= 1
 c_1_6: y_6 + y_8 >= 1
 c_1_7: y_7 + y_9 >= 1
 c_1_8: y_6 + y_8 >= 1
 c_1_9: y_3 + y_7 + y_9 >= 1
 c_2_0: - 2 y_0 + x_0_1 + x_0_2 + x_0_4 + x_0_6 + x_0_7 + x_0_8 + x_0_9
   = 0
 c_2_1: - 2 y_1 + x_0_1 + x_1_2 + x_1_3 + x_1_4 = 0
 c_2_2: - 2 y_2 + x_0_2 + x_1_2 + x_2_3 + x_2_6 = 0
 c_2_3: - 2 y_3 + x_1_3 + x_2_3 + x_3_5 + x_3_6 = 0
 c_2_4: - 2 y_4 + x_0_4 + x_1_4 + x_4_5 + x_4_6 + x_4_7 = 0
 c_2_5: - 2 y_5 + x_3_5 + x_4_5 + x_5_6 + x_5_8 = 0
 c_2_6: - 2 y_6 + x_0_6 + x_2_6 + x_3_6 + x_4_6 + x_5_6 + x_6_7 + x_6_9
   = 0
 c_2_7: - 2 y_7 + x_0_7 + x_4_7 + x_6_7 + x_7_8 + 216 x_7_9 = 0
 c_2_8: - 2 y_8 + x_0_8 + x_5_8 + x_7_8 = 0
 c_2_9: - 2 y_9 + x_0_9 + x_6_9 + 216 x_7_9 = 0
Bounds
 Constant = 1
Binaries
 y_0 y_1 y_2 y_3 y_4 y_5 y_6 y_7 y_8 y_9 x_0_1 x_0_2 x_0_4 x_0_6 x_0_7
 x_0_8 x_0_9 x_1_2 x_1_3 x_1_4 x_2_3 x_2_6 x_3_5 x_3_6 x_4_5 x_4_6 x_4_7
 x_5_6 x_5_8 x_6_7 x_6_9 x_7_8 x_7_9 x_7_9 x_7_9 x_7_9 x_7_9 x_7_9 x_7_9
 x_7_9 x_7_9 x_7_9 x_7_9 x_7_9 x_7_9 x_7_9 x_7_9 x_7_9 x_7_9 x_7_9 x_7_9
 x_7_9 x_7_9 x_7_9 x_7_9 x_7_9 x_7_9 x_7_9 x_7_9 x_7_9 x_7_9 x_7_9 x_7_9
 x_7_9 x_7_9 x_7_9 x_7_9 x_7_9 x_7_9 x_7_9 x_7_9 x_7_9 x_7_9 x_7_9 x_7_9
 x_7_9 x_7_9 x_7_9 x_7_9 x_7_9 x_7_9 x_7_9 x_7_9 x_7_9 x_7_9 x_7_9 x_7_9
 x_7_9 x_7_9 x_7_9 x_7_9 x_7_9 x_7_9 x_7_9 x_7_9 x_7_9 x_7_9 x_7_9 x_7_9
 x_7_9 x_7_9 x_7_9 x_7_9 x_7_9 x_7_9 x_7_9 x_7_9 x_7_9 x_7_9 x_7_9 x_7_9
 x_7_9 x_7_9 x_7_9 x_7_9 x_7_9 x_7_9 x_7_9 x_7_9 x_7_9 x_7_9 x_7_9 x_7_9
 x_7_9 x_7_9 x_7_9 x_7_9 x_7_9 x_7_9 x_7_9 x_7_9 x_7_9 x_7_9 x_7_9 x_7_9
 x_7_9 x_7_9 x_7_9 x_7_9 x_7_9 x_7_9 x_7_9 x_7_9 x_7_9 x_7_9 x_7_9 x_7_9
 x_7_9 x_7_9 x_7_9 x_7_9 x_7_9 x_7_9 x_7_9 x_7_9 x_7_9 x_7_9 x_7_9 x_7_9
 x_7_9 x_7_9 x_7_9 x_7_9 x_7_9 x_7_9 x_7_9 x_7_9 x_7_9 x_7_9 x_7_9 x_7_9
 x_7_9 x_7_9 x_7_9 x_7_9 x_7_9 x_7_9 x_7_9 x_7_9 x_7_9 x_7_9 x_7_9 x_7_9
 x_7_9 x_7_9 x_7_9 x_7_9 x_7_9 x_7_9 x_7_9 x_7_9 x_7_9 x_7_9 x_7_9 x_7_9
 x_7_9 x_7_9 x_7_9 x_7_9 x_7_9 x_7_9 x_7_9 x_7_9 x_7_9 x_7_9 x_7_9 x_7_9
 x_7_9 x_7_9 x_7_9 x_7_9 x_7_9 x_7_9 x_7_9 x_7_9 x_7_9 x_7_9 x_7_9 x_7_9
 x_7_9 x_7_9 x_7_9 x_7_9 x_7_9 x_7_9 x_7_9 x_7_9 x_7_9 x_7_9 x_7_9 x_7_9
 x_7_9 x_7_9 x_7_9 x_7_9 x_7_9 x_7_9 x_7_9 x_7_9 x_7_9 x_7_9 x_7_9 x_7_9
 x_7_9 x_7_9 x_7_9 x_7_9 x_7_9
End
